tsp_instances/TSP50/instance71.tsp
NODE_COORD_SECTION
0 105 197
1 130 95
2 94 81
3 91 4
4 87 167
5 52 180
6 99 53
7 103 69
8 67 180
9 67 176
10 32 188
11 1 134
12 173 104
13 162 19
14 4 69
15 12 83
16 5 193
17 184 36
18 64 187
19 176 161
20 90 128
21 38 102
22 79 133
23 42 131
24 148 180
25 31 132
26 82 52
27 72 129
28 111 18
29 89 49
30 184 143
31 83 55
32 76 80
33 57 171
34 7 21
35 12 33
36 46 180
37 56 68
38 130 57
39 95 90
40 142 44
41 100 13
42 25 43
43 164 45
44 61 73
45 55 166
46 65 141
47 45 0
48 75 136
49 179 131
