tsp_instances/TSP50/instance71.opt.tour
TOUR_SECTION
1
5
21
23
49
28
47
46
34
10
9
19
6
37
11
17
12
26
24
22
16
15
43
36
35
48
4
42
29
14
18
44
41
39
8
7
30
27
32
38
45
33
3
40
2
13
50
31
20
25
-1